num_offers = 30;
num_halls = 10;
start=[27,54,4,27,1,24,7,40,10,32,38,18,55,39,9,26,63,19,19,19,10,10,50,3,3,36,23,31,31,5];
end=[35,67,98,77,8,72,74,54,33,55,78,21,74,60,99,27,87,92,50,49,28,23,82,51,76,81,54,86,96,79];
price=[609,424,3898,4288,133,2438,2444,887,1522,2147,3731,239,968,487,8378,166,958,5509,2378,1818,298,487,2853,1762,6654,728,2710,3223,962,2518];
requirement=[593,561,610,497,408,314,530,247,359,800,617,255,202,499,395,906,847,435,349,948,568,423,797,471,652,333,449,684,348,931];
capacity=[776,582,506,586,599,990,649,810,738,928];
